NAME: tsp20_6
COMMENT: 20-tsp problem (Padberg/Rinaldi)
TYPE: TSP
DIMENSION: 20
EDGE_WEIGHT_TYPE : EUC_2D
NODE_COORD_SECTION
1 32 5
2 22 1
3 24 13
4 3 16
5 27 16
6 11 4
7 1 18
8 39 30
9 11 30
10 7 29
11 6 6
12 25 38
13 36 35
14 10 1
15 34 21
16 35 35
17 16 7
18 18 40
19 10 11
20 34 5
